Route #1: 1 27 6 29 10 30 12 37 18 22 24 1
Route #2: 1 25 16 4 39 13 38 32 1
Route #3: 1 14 31 21 33 1
Route #4: 1 3 34 20 5 17 35 1
Route #5: 1 15 26 36 9 8 11 28 23 19 1
Route #6: 1 7 2 1
cost 1017.4259068646176
